0 396
2 392
5 388
10 372
12 364
17 354
19 342
25 336
27 324
42 322
47 318
56 312
58 310
60 302
62 290
64 288
72 272
75 258
81 250
83 242
84 234
91 232
100 220
134 212
160 208
203 204
284 202
301 200
357 198
427 194
481 192
488 186
632 184
659 182
700 174
760 172
810 170
838 166
944 164
1148 162
1623 158
3732 154
14846 152
